QPLIB_2203
LGQ
minimize
305 # number of variables
300 # number of constraints
0.0 # default value for linear coefficients in objective
100 # number of non-default linear coefficients in objective
1 1.0
2 1.0
3 1.0
4 1.0
5 1.0
6 1.0
7 1.0
8 1.0
9 1.0
10 1.0
11 1.0
12 1.0
13 1.0
14 1.0
15 1.0
16 1.0
17 1.0
18 1.0
19 1.0
20 1.0
21 1.0
22 1.0
23 1.0
24 1.0
25 1.0
26 1.0
27 1.0
28 1.0
29 1.0
30 1.0
31 1.0
32 1.0
33 1.0
34 1.0
35 1.0
36 1.0
37 1.0
38 1.0
39 1.0
40 1.0
41 1.0
42 1.0
43 1.0
44 1.0
45 1.0
46 1.0
47 1.0
48 1.0
49 1.0
50 1.0
51 1.0
52 1.0
53 1.0
54 1.0
55 1.0
56 1.0
57 1.0
58 1.0
59 1.0
60 1.0
61 1.0
62 1.0
63 1.0
64 1.0
65 1.0
66 1.0
67 1.0
68 1.0
69 1.0
70 1.0
71 1.0
72 1.0
73 1.0
74 1.0
75 1.0
76 1.0
77 1.0
78 1.0
79 1.0
80 1.0
81 1.0
82 1.0
83 1.0
84 1.0
85 1.0
86 1.0
87 1.0
88 1.0
89 1.0
90 1.0
91 1.0
92 1.0
93 1.0
94 1.0
95 1.0
96 1.0
97 1.0
98 1.0
99 1.0
100 1.0
0.0 # objective constant
100 # number of quadratic terms in all constraints
201 1651076122 193 2.0
202 1852403556 1 2.0
203 1768711012 50 2.0
204 775173731 1 2.0
205 1663070068 1651076122 2.0
206 1852403556 824206179 2.0
207 1768711012 12321 2.0
208 775173731 1 2.0
209 1663070068 193 2.0
210 824210800 1 2.0
211 50 -1377292255 2.0
212 32596 1 2.0
213 1651076122 1 2.0
214 1852403556 1 2.0
215 1768711012 50 2.0
216 775173731 1 2.0
217 1663070068 1651076122 2.0
218 1852403556 824210800 2.0
219 1768711012 -1377292255 2.0
220 775173731 32596 2.0
221 1763733364 1 2.0
222 824209265 1 2.0
223 12321 50 2.0
224 1 1 2.0
225 1651076122 1 2.0
226 1852403556 1 2.0
227 1768711012 50 2.0
228 775173731 1 2.0
229 1763733364 1651076122 2.0
230 1852403556 824209265 2.0
231 1768711012 12321 2.0
232 775173731 1 2.0
233 1864396660 1 2.0
234 824205172 1 2.0
235 12321 50 2.0
236 1 1 2.0
237 1651076122 1 2.0
238 1852403556 1 2.0
239 1768711012 50 2.0
240 775173731 1 2.0
241 1864396660 1651076122 2.0
242 1852403556 824205172 2.0
243 1768711012 12321 2.0
244 775173731 1 2.0
245 1931505524 1 2.0
246 824209508 1 2.0
247 50 -1377291999 2.0
248 32596 1 2.0
249 1651076122 385 2.0
250 1852403556 1 2.0
251 1768711012 50 2.0
252 775173731 1 2.0
253 1931505524 1651076121 2.0
254 1684959076 824209508 2.0
255 1651076196 -1377291999 2.0
256 1932407863 32596 2.0
257 1868767344 385 2.0
258 540090479 1 2.0
259 50 50 2.0
260 1 1 2.0
261 1651076121 33124849 2.0
262 1684959076 1 2.0
263 1651076196 50 2.0
264 1932407863 1 2.0
265 1868767344 1651076121 2.0
266 1684959076 540090479 2.0
267 1651076196 50 2.0
268 1932407863 1 2.0
269 1868767344 33124849 2.0
270 540090479 1 2.0
271 50 -1377275342 2.0
272 32596 1 2.0
273 1651076121 481 2.0
274 1684959076 1 2.0
275 1651076196 50 2.0
276 1932407863 1 2.0
277 1868767344 1651076121 2.0
278 1681157988 540090479 2.0
279 1651076196 -1377275342 2.0
280 1932407863 32596 2.0
281 1868767344 481 2.0
282 540090421 1 2.0
283 2097 50 2.0
284 1 1 2.0
285 1651076121 33143697 2.0
286 1681157988 1 2.0
287 1651076196 50 2.0
288 1932407863 1 2.0
289 1868767344 1651076121 2.0
290 1684959076 540090421 2.0
291 1651076196 2097 2.0
292 1932407863 1 2.0
293 1868767344 33143697 2.0
294 540090479 1 2.0
295 50 50 2.0
296 1 1 2.0
297 1651076121 -1377240071 2.0
298 1684959076 32596 2.0
299 1651076196 50 2.0
300 1932407863 1 2.0
793 # number of linear terms in all constraints
1 101 -66.0
1 102 49.0
1 103 -81.0
1 104 73.0
1 105 15.0
1 106 -1.0
2 101 38.0
2 102 -26.0
2 103 74.0
2 104 48.0
2 105 -11.0
2 107 -1.0
3 101 46.0
3 102 -48.0
3 103 -21.0
3 104 55.0
3 105 68.0
3 108 -1.0
4 101 42.0
4 102 -84.0
4 103 -9.0
4 104 -78.0
4 105 8.0
4 109 -1.0
5 101 13.0
5 102 91.0
5 103 73.0
5 104 -68.0
5 105 -45.0
5 110 -1.0
6 101 84.0
6 102 -13.0
6 103 57.0
6 104 -75.0
6 105 -84.0
6 111 -1.0
7 101 -95.0
7 102 -70.0
7 103 -24.0
7 104 -69.0
7 105 5.0
7 112 -1.0
8 101 -14.0
8 102 -47.0
8 103 -37.0
8 104 53.0
8 105 -79.0
8 113 -1.0
9 101 40.0
9 102 -57.0
9 103 52.0
9 104 -18.0
9 105 29.0
9 114 -1.0
10 102 37.0
10 103 -13.0
10 104 21.0
10 105 14.0
10 115 -1.0
11 101 -7.0
11 102 26.0
11 103 -73.0
11 104 92.0
11 105 -71.0
11 116 -1.0
12 101 -35.0
12 102 90.0
12 103 -29.0
12 104 -20.0
12 105 -80.0
12 117 -1.0
13 101 96.0
13 102 14.0
13 103 73.0
13 104 -70.0
13 105 81.0
13 118 -1.0
14 101 -88.0
14 102 90.0
14 103 93.0
14 104 56.0
14 105 60.0
14 119 -1.0
15 101 -44.0
15 102 92.0
15 103 15.0
15 104 -13.0
15 105 -25.0
15 120 -1.0
16 101 -95.0
16 102 53.0
16 103 44.0
16 104 17.0
16 105 -15.0
16 121 -1.0
17 101 49.0
17 102 -87.0
17 103 -90.0
17 104 54.0
17 105 40.0
17 122 -1.0
18 101 -40.0
18 102 -86.0
18 103 37.0
18 104 -27.0
18 105 45.0
18 123 -1.0
19 101 -69.0
19 102 -68.0
19 103 66.0
19 104 9.0
19 105 -37.0
19 124 -1.0
20 101 -13.0
20 102 -58.0
20 103 45.0
20 104 -100.0
20 105 16.0
20 125 -1.0
21 101 87.0
21 102 52.0
21 103 -75.0
21 104 -98.0
21 126 -1.0
22 101 70.0
22 102 -82.0
22 103 71.0
22 104 57.0
22 105 15.0
22 127 -1.0
23 101 65.0
23 102 49.0
23 103 81.0
23 104 1.0
23 105 76.0
23 128 -1.0
24 101 12.0
24 102 -5.0
24 103 -17.0
24 104 29.0
24 105 75.0
24 129 -1.0
25 101 -56.0
25 102 99.0
25 103 -69.0
25 104 38.0
25 105 40.0
25 130 -1.0
26 101 29.0
26 102 30.0
26 103 68.0
26 104 36.0
26 105 93.0
26 131 -1.0
27 101 59.0
27 102 -68.0
27 103 72.0
27 104 20.0
27 105 -16.0
27 132 -1.0
28 101 73.0
28 102 -7.0
28 103 -51.0
28 104 68.0
28 105 68.0
28 133 -1.0
29 101 -74.0
29 102 -5.0
29 103 56.0
29 105 13.0
29 134 -1.0
30 101 -93.0
30 102 -34.0
30 103 -15.0
30 104 16.0
30 105 -83.0
30 135 -1.0
31 101 17.0
31 102 -53.0
31 103 48.0
31 104 91.0
31 105 72.0
31 136 -1.0
32 101 7.0
32 102 -24.0
32 103 -100.0
32 104 43.0
32 105 -90.0
32 137 -1.0
33 101 51.0
33 102 25.0
33 103 86.0
33 104 9.0
33 105 -17.0
33 138 -1.0
34 101 -61.0
34 102 -39.0
34 103 -58.0
34 104 21.0
34 105 -26.0
34 139 -1.0
35 101 -8.0
35 102 60.0
35 103 -64.0
35 104 43.0
35 105 -5.0
35 140 -1.0
36 101 26.0
36 102 -52.0
36 103 -76.0
36 104 74.0
36 105 -80.0
36 141 -1.0
37 101 -24.0
37 102 10.0
37 103 -85.0
37 104 -25.0
37 105 24.0
37 142 -1.0
38 101 -16.0
38 102 64.0
38 103 9.0
38 104 45.0
38 105 -2.0
38 143 -1.0
39 102 -2.0
39 103 -2.0
39 104 69.0
39 105 83.0
39 144 -1.0
40 101 8.0
40 102 20.0
40 103 21.0
40 104 -12.0
40 105 41.0
40 145 -1.0
41 101 52.0
41 102 -39.0
41 103 57.0
41 104 -82.0
41 105 79.0
41 146 -1.0
42 101 93.0
42 102 23.0
42 103 -87.0
42 104 -78.0
42 105 25.0
42 147 -1.0
43 101 11.0
43 102 -53.0
43 103 22.0
43 104 86.0
43 105 13.0
43 148 -1.0
44 101 -7.0
44 102 -76.0
44 103 -53.0
44 104 99.0
44 105 11.0
44 149 -1.0
45 101 -43.0
45 102 45.0
45 103 64.0
45 104 -2.0
45 105 18.0
45 150 -1.0
46 101 -69.0
46 102 39.0
46 103 18.0
46 104 76.0
46 105 -14.0
46 151 -1.0
47 101 -64.0
47 102 37.0
47 103 -57.0
47 104 -47.0
47 105 -56.0
47 152 -1.0
48 101 -47.0
48 102 -11.0
48 103 -53.0
48 104 -41.0
48 105 29.0
48 153 -1.0
49 101 38.0
49 102 -15.0
49 103 51.0
49 104 -20.0
49 105 -25.0
49 154 -1.0
50 101 6.0
50 102 79.0
50 103 30.0
50 104 86.0
50 105 -99.0
50 155 -1.0
51 101 28.0
51 102 52.0
51 103 34.0
51 104 53.0
51 105 50.0
51 156 -1.0
52 101 -57.0
52 102 26.0
52 103 19.0
52 104 24.0
52 105 -27.0
52 157 -1.0
53 101 -50.0
53 102 -28.0
53 103 -3.0
53 105 -42.0
53 158 -1.0
54 101 32.0
54 102 79.0
54 103 33.0
54 104 -92.0
54 105 67.0
54 159 -1.0
55 101 -64.0
55 102 -95.0
55 103 -5.0
55 104 12.0
55 105 -67.0
55 160 -1.0
56 101 28.0
56 102 -39.0
56 103 91.0
56 104 52.0
56 105 26.0
56 161 -1.0
57 101 -74.0
57 102 51.0
57 103 -4.0
57 104 42.0
57 105 -77.0
57 162 -1.0
58 101 -20.0
58 102 40.0
58 103 56.0
58 104 40.0
58 105 -47.0
58 163 -1.0
59 101 -74.0
59 102 -45.0
59 103 -84.0
59 104 -58.0
59 105 -61.0
59 164 -1.0
60 101 20.0
60 102 9.0
60 103 13.0
60 104 -75.0
60 105 -86.0
60 165 -1.0
61 101 -70.0
61 102 12.0
61 103 -37.0
61 104 -33.0
61 105 -59.0
61 166 -1.0
62 101 -93.0
62 102 -92.0
62 103 63.0
62 104 -88.0
62 105 41.0
62 167 -1.0
63 101 77.0
63 102 87.0
63 103 -100.0
63 104 -30.0
63 105 87.0
63 168 -1.0
64 101 -28.0
64 102 95.0
64 103 -95.0
64 104 -32.0
64 105 69.0
64 169 -1.0
65 101 40.0
65 102 13.0
65 103 -80.0
65 104 -64.0
65 105 -52.0
65 170 -1.0
66 101 97.0
66 102 2.0
66 103 80.0
66 104 -7.0
66 105 -5.0
66 171 -1.0
67 101 51.0
67 102 -77.0
67 103 -71.0
67 104 39.0
67 105 -48.0
67 172 -1.0
68 101 -87.0
68 102 -71.0
68 103 -18.0
68 104 -84.0
68 105 27.0
68 173 -1.0
69 101 -52.0
69 102 15.0
69 103 -68.0
69 104 -47.0
69 105 -85.0
69 174 -1.0
70 101 -83.0
70 102 -72.0
70 103 -6.0
70 104 44.0
70 105 -5.0
70 175 -1.0
71 101 -1.0
71 102 -84.0
71 103 -41.0
71 104 -41.0
71 105 -34.0
71 176 -1.0
72 101 -81.0
72 102 -60.0
72 103 -79.0
72 104 -66.0
72 105 66.0
72 177 -1.0
73 101 84.0
73 102 6.0
73 103 -6.0
73 104 39.0
73 105 1.0
73 178 -1.0
74 101 96.0
74 102 -7.0
74 103 33.0
74 104 78.0
74 105 70.0
74 179 -1.0
75 101 42.0
75 102 -83.0
75 103 59.0
75 104 -25.0
75 105 -9.0
75 180 -1.0
76 101 55.0
76 102 19.0
76 103 -89.0
76 104 -76.0
76 105 11.0
76 181 -1.0
77 101 -88.0
77 102 4.0
77 103 68.0
77 104 -69.0
77 105 -100.0
77 182 -1.0
78 101 -57.0
78 102 -63.0
78 103 93.0
78 104 63.0
78 105 41.0
78 183 -1.0
79 101 35.0
79 102 54.0
79 103 -54.0
79 104 -57.0
79 105 -26.0
79 184 -1.0
80 101 -68.0
80 102 22.0
80 103 -76.0
80 104 -13.0
80 105 -100.0
80 185 -1.0
81 101 -8.0
81 102 37.0
81 103 -94.0
81 104 -19.0
81 186 -1.0
82 101 99.0
82 102 -27.0
82 103 -26.0
82 104 90.0
82 105 -84.0
82 187 -1.0
83 101 58.0
83 102 -29.0
83 103 94.0
83 104 -64.0
83 105 -14.0
83 188 -1.0
84 101 -77.0
84 102 6.0
84 103 -52.0
84 104 22.0
84 105 55.0
84 189 -1.0
85 101 -2.0
85 102 86.0
85 103 -37.0
85 104 -28.0
85 105 -80.0
85 190 -1.0
86 101 77.0
86 102 78.0
86 103 97.0
86 104 -79.0
86 105 -70.0
86 191 -1.0
87 101 56.0
87 102 75.0
87 103 -48.0
87 104 -75.0
87 105 7.0
87 192 -1.0
88 101 -23.0
88 102 -26.0
88 103 -5.0
88 104 45.0
88 105 86.0
88 193 -1.0
89 101 -5.0
89 102 91.0
89 103 -40.0
89 104 -10.0
89 105 64.0
89 194 -1.0
90 101 45.0
90 102 -31.0
90 103 31.0
90 104 72.0
90 105 32.0
90 195 -1.0
91 101 85.0
91 102 -36.0
91 103 -5.0
91 104 13.0
91 105 -15.0
91 196 -1.0
92 101 -83.0
92 102 -15.0
92 103 -38.0
92 104 39.0
92 105 -29.0
92 197 -1.0
93 101 -78.0
93 102 47.0
93 103 85.0
93 104 -72.0
93 105 88.0
93 198 -1.0
94 101 -20.0
94 102 -60.0
94 103 -80.0
94 104 -93.0
94 105 -19.0
94 199 -1.0
95 101 36.0
95 102 -49.0
95 103 62.0
95 104 -81.0
95 105 29.0
95 200 -1.0
96 102 -69.0
96 103 26.0
96 104 -79.0
96 105 -58.0
96 201 -1.0
97 101 97.0
97 102 -97.0
97 103 72.0
97 104 -76.0
97 105 -74.0
97 202 -1.0
98 101 -74.0
98 102 72.0
98 103 8.0
98 104 -11.0
98 105 -37.0
98 203 -1.0
99 101 93.0
99 102 61.0
99 103 44.0
99 104 68.0
99 105 86.0
99 204 -1.0
100 101 -7.0
100 102 -22.0
100 103 -24.0
100 104 -50.0
100 105 -74.0
100 205 -1.0
101 1 -1.0
101 206 -1.0
102 2 -1.0
102 207 -1.0
103 3 -1.0
103 208 -1.0
104 4 -1.0
104 209 -1.0
105 5 -1.0
105 210 -1.0
106 6 -1.0
106 211 -1.0
107 7 -1.0
107 212 -1.0
108 8 -1.0
108 213 -1.0
109 9 -1.0
109 214 -1.0
110 10 -1.0
110 215 -1.0
111 11 -1.0
111 216 -1.0
112 12 -1.0
112 217 -1.0
113 13 -1.0
113 218 -1.0
114 14 -1.0
114 219 -1.0
115 15 -1.0
115 220 -1.0
116 16 -1.0
116 221 -1.0
117 17 -1.0
117 222 -1.0
118 18 -1.0
118 223 -1.0
119 19 -1.0
119 224 -1.0
120 20 -1.0
120 225 -1.0
121 21 -1.0
121 226 -1.0
122 22 -1.0
122 227 -1.0
123 23 -1.0
123 228 -1.0
124 24 -1.0
124 229 -1.0
125 25 -1.0
125 230 -1.0
126 26 -1.0
126 231 -1.0
127 27 -1.0
127 232 -1.0
128 28 -1.0
128 233 -1.0
129 29 -1.0
129 234 -1.0
130 30 -1.0
130 235 -1.0
131 31 -1.0
131 236 -1.0
132 32 -1.0
132 237 -1.0
133 33 -1.0
133 238 -1.0
134 34 -1.0
134 239 -1.0
135 35 -1.0
135 240 -1.0
136 36 -1.0
136 241 -1.0
137 37 -1.0
137 242 -1.0
138 38 -1.0
138 243 -1.0
139 39 -1.0
139 244 -1.0
140 40 -1.0
140 245 -1.0
141 41 -1.0
141 246 -1.0
142 42 -1.0
142 247 -1.0
143 43 -1.0
143 248 -1.0
144 44 -1.0
144 249 -1.0
145 45 -1.0
145 250 -1.0
146 46 -1.0
146 251 -1.0
147 47 -1.0
147 252 -1.0
148 48 -1.0
148 253 -1.0
149 49 -1.0
149 254 -1.0
150 50 -1.0
150 255 -1.0
151 51 -1.0
151 256 -1.0
152 52 -1.0
152 257 -1.0
153 53 -1.0
153 258 -1.0
154 54 -1.0
154 259 -1.0
155 55 -1.0
155 260 -1.0
156 56 -1.0
156 261 -1.0
157 57 -1.0
157 262 -1.0
158 58 -1.0
158 263 -1.0
159 59 -1.0
159 264 -1.0
160 60 -1.0
160 265 -1.0
161 61 -1.0
161 266 -1.0
162 62 -1.0
162 267 -1.0
163 63 -1.0
163 268 -1.0
164 64 -1.0
164 269 -1.0
165 65 -1.0
165 270 -1.0
166 66 -1.0
166 271 -1.0
167 67 -1.0
167 272 -1.0
168 68 -1.0
168 273 -1.0
169 69 -1.0
169 274 -1.0
170 70 -1.0
170 275 -1.0
171 71 -1.0
171 276 -1.0
172 72 -1.0
172 277 -1.0
173 73 -1.0
173 278 -1.0
174 74 -1.0
174 279 -1.0
175 75 -1.0
175 280 -1.0
176 76 -1.0
176 281 -1.0
177 77 -1.0
177 282 -1.0
178 78 -1.0
178 283 -1.0
179 79 -1.0
179 284 -1.0
180 80 -1.0
180 285 -1.0
181 81 -1.0
181 286 -1.0
182 82 -1.0
182 287 -1.0
183 83 -1.0
183 288 -1.0
184 84 -1.0
184 289 -1.0
185 85 -1.0
185 290 -1.0
186 86 -1.0
186 291 -1.0
187 87 -1.0
187 292 -1.0
188 88 -1.0
188 293 -1.0
189 89 -1.0
189 294 -1.0
190 90 -1.0
190 295 -1.0
191 91 -1.0
191 296 -1.0
192 92 -1.0
192 297 -1.0
193 93 -1.0
193 298 -1.0
194 94 -1.0
194 299 -1.0
195 95 -1.0
195 300 -1.0
196 96 -1.0
196 301 -1.0
197 97 -1.0
197 302 -1.0
198 98 -1.0
198 303 -1.0
199 99 -1.0
199 304 -1.0
200 100 -1.0
200 305 -1.0
1.79769313486232E+308 # value for infinity
0.0 # default left-hand-side value
200 # number of non-default left-hand-sides
1 -1.79769313486232E+308
2 -1.79769313486232E+308
3 -1.79769313486232E+308
4 -1.79769313486232E+308
5 -1.79769313486232E+308
6 -1.79769313486232E+308
7 -1.79769313486232E+308
8 -1.79769313486232E+308
9 -1.79769313486232E+308
10 -1.79769313486232E+308
11 -1.79769313486232E+308
12 -1.79769313486232E+308
13 -1.79769313486232E+308
14 -1.79769313486232E+308
15 -1.79769313486232E+308
16 -1.79769313486232E+308
17 -1.79769313486232E+308
18 -1.79769313486232E+308
19 -1.79769313486232E+308
20 -1.79769313486232E+308
21 -1.79769313486232E+308
22 -1.79769313486232E+308
23 -1.79769313486232E+308
24 -1.79769313486232E+308
25 -1.79769313486232E+308
26 -1.79769313486232E+308
27 -1.79769313486232E+308
28 -1.79769313486232E+308
29 -1.79769313486232E+308
30 -1.79769313486232E+308
31 -1.79769313486232E+308
32 -1.79769313486232E+308
33 -1.79769313486232E+308
34 -1.79769313486232E+308
35 -1.79769313486232E+308
36 -1.79769313486232E+308
37 -1.79769313486232E+308
38 -1.79769313486232E+308
39 -1.79769313486232E+308
40 -1.79769313486232E+308
41 -1.79769313486232E+308
42 -1.79769313486232E+308
43 -1.79769313486232E+308
44 -1.79769313486232E+308
45 -1.79769313486232E+308
46 -1.79769313486232E+308
47 -1.79769313486232E+308
48 -1.79769313486232E+308
49 -1.79769313486232E+308
50 -1.79769313486232E+308
51 -1.79769313486232E+308
52 -1.79769313486232E+308
53 -1.79769313486232E+308
54 -1.79769313486232E+308
55 -1.79769313486232E+308
56 -1.79769313486232E+308
57 -1.79769313486232E+308
58 -1.79769313486232E+308
59 -1.79769313486232E+308
60 -1.79769313486232E+308
61 -1.79769313486232E+308
62 -1.79769313486232E+308
63 -1.79769313486232E+308
64 -1.79769313486232E+308
65 -1.79769313486232E+308
66 -1.79769313486232E+308
67 -1.79769313486232E+308
68 -1.79769313486232E+308
69 -1.79769313486232E+308
70 -1.79769313486232E+308
71 -1.79769313486232E+308
72 -1.79769313486232E+308
73 -1.79769313486232E+308
74 -1.79769313486232E+308
75 -1.79769313486232E+308
76 -1.79769313486232E+308
77 -1.79769313486232E+308
78 -1.79769313486232E+308
79 -1.79769313486232E+308
80 -1.79769313486232E+308
81 -1.79769313486232E+308
82 -1.79769313486232E+308
83 -1.79769313486232E+308
84 -1.79769313486232E+308
85 -1.79769313486232E+308
86 -1.79769313486232E+308
87 -1.79769313486232E+308
88 -1.79769313486232E+308
89 -1.79769313486232E+308
90 -1.79769313486232E+308
91 -1.79769313486232E+308
92 -1.79769313486232E+308
93 -1.79769313486232E+308
94 -1.79769313486232E+308
95 -1.79769313486232E+308
96 -1.79769313486232E+308
97 -1.79769313486232E+308
98 -1.79769313486232E+308
99 -1.79769313486232E+308
100 -1.79769313486232E+308
101 -1.0
102 -1.0
103 -1.0
104 -1.0
105 -1.0
106 -1.0
107 -1.0
108 -1.0
109 -1.0
110 -1.0
111 -1.0
112 -1.0
113 -1.0
114 -1.0
115 -1.0
116 -1.0
117 -1.0
118 -1.0
119 -1.0
120 -1.0
121 -1.0
122 -1.0
123 -1.0
124 -1.0
125 -1.0
126 -1.0
127 -1.0
128 -1.0
129 -1.0
130 -1.0
131 -1.0
132 -1.0
133 -1.0
134 -1.0
135 -1.0
136 -1.0
137 -1.0
138 -1.0
139 -1.0
140 -1.0
141 -1.0
142 -1.0
143 -1.0
144 -1.0
145 -1.0
146 -1.0
147 -1.0
148 -1.0
149 -1.0
150 -1.0
151 -1.0
152 -1.0
153 -1.0
154 -1.0
155 -1.0
156 -1.0
157 -1.0
158 -1.0
159 -1.0
160 -1.0
161 -1.0
162 -1.0
163 -1.0
164 -1.0
165 -1.0
166 -1.0
167 -1.0
168 -1.0
169 -1.0
170 -1.0
171 -1.0
172 -1.0
173 -1.0
174 -1.0
175 -1.0
176 -1.0
177 -1.0
178 -1.0
179 -1.0
180 -1.0
181 -1.0
182 -1.0
183 -1.0
184 -1.0
185 -1.0
186 -1.0
187 -1.0
188 -1.0
189 -1.0
190 -1.0
191 -1.0
192 -1.0
193 -1.0
194 -1.0
195 -1.0
196 -1.0
197 -1.0
198 -1.0
199 -1.0
200 -1.0
0.0 # default right-hand-side value
200 # number of non-default right-hand-sides
1 56.0
2 -29.0
3 14.0
4 -22.0
5 -48.0
6 88.0
7 75.0
8 53.0
9 85.0
10 26.0
11 -11.0
12 90.0
13 29.0
14 13.0
15 84.0
16 28.0
17 -76.0
18 -61.0
19 5.0
20 -5.0
21 68.0
22 -81.0
23 92.0
24 16.0
25 97.0
26 -34.0
27 96.0
28 47.0
29 -11.0
30 34.0
31 -86.0
32 -96.0
33 -22.0
34 -68.0
35 -72.0
36 50.0
37 57.0
38 -48.0
39 -28.0
40 -57.0
41 86.0
42 -86.0
43 14.0
44 72.0
45 -78.0
46 -58.0
47 -1.0
48 49.0
49 27.0
50 -66.0
51 79.0
52 -86.0
53 -53.0
54 13.0
55 21.0
56 -87.0
57 27.0
58 55.0
59 23.0
60 76.0
61 34.0
62 -18.0
63 98.0
64 -12.0
65 36.0
66 -19.0
67 5.0
68 -97.0
69 -71.0
70 11.0
71 -83.0
72 65.0
73 53.0
74 50.0
75 -27.0
76 30.0
77 79.0
78 17.0
79 64.0
80 3.0
81 -44.0
82 22.0
83 56.0
84 -64.0
85 -26.0
86 87.0
87 -31.0
88 -1.0
89 -24.0
90 60.0
91 89.0
92 6.0
93 -96.0
94 -11.0
95 1.0
96 77.0
97 13.0
98 -14.0
99 -77.0
100 24.0
101 -1.0
102 -1.0
103 -1.0
104 -1.0
105 -1.0
106 -1.0
107 -1.0
108 -1.0
109 -1.0
110 -1.0
111 -1.0
112 -1.0
113 -1.0
114 -1.0
115 -1.0
116 -1.0
117 -1.0
118 -1.0
119 -1.0
120 -1.0
121 -1.0
122 -1.0
123 -1.0
124 -1.0
125 -1.0
126 -1.0
127 -1.0
128 -1.0
129 -1.0
130 -1.0
131 -1.0
132 -1.0
133 -1.0
134 -1.0
135 -1.0
136 -1.0
137 -1.0
138 -1.0
139 -1.0
140 -1.0
141 -1.0
142 -1.0
143 -1.0
144 -1.0
145 -1.0
146 -1.0
147 -1.0
148 -1.0
149 -1.0
150 -1.0
151 -1.0
152 -1.0
153 -1.0
154 -1.0
155 -1.0
156 -1.0
157 -1.0
158 -1.0
159 -1.0
160 -1.0
161 -1.0
162 -1.0
163 -1.0
164 -1.0
165 -1.0
166 -1.0
167 -1.0
168 -1.0
169 -1.0
170 -1.0
171 -1.0
172 -1.0
173 -1.0
174 -1.0
175 -1.0
176 -1.0
177 -1.0
178 -1.0
179 -1.0
180 -1.0
181 -1.0
182 -1.0
183 -1.0
184 -1.0
185 -1.0
186 -1.0
187 -1.0
188 -1.0
189 -1.0
190 -1.0
191 -1.0
192 -1.0
193 -1.0
194 -1.0
195 -1.0
196 -1.0
197 -1.0
198 -1.0
199 -1.0
200 -1.0
-1.79769313486232E+308 # default variable lower bound value
200 # number of non-default variable lower bounds
1 0.0
2 0.0
3 0.0
4 0.0
5 0.0
6 0.0
7 0.0
8 0.0
9 0.0
10 0.0
11 0.0
12 0.0
13 0.0
14 0.0
15 0.0
16 0.0
17 0.0
18 0.0
19 0.0
20 0.0
21 0.0
22 0.0
23 0.0
24 0.0
25 0.0
26 0.0
27 0.0
28 0.0
29 0.0
30 0.0
31 0.0
32 0.0
33 0.0
34 0.0
35 0.0
36 0.0
37 0.0
38 0.0
39 0.0
40 0.0
41 0.0
42 0.0
43 0.0
44 0.0
45 0.0
46 0.0
47 0.0
48 0.0
49 0.0
50 0.0
51 0.0
52 0.0
53 0.0
54 0.0
55 0.0
56 0.0
57 0.0
58 0.0
59 0.0
60 0.0
61 0.0
62 0.0
63 0.0
64 0.0
65 0.0
66 0.0
67 0.0
68 0.0
69 0.0
70 0.0
71 0.0
72 0.0
73 0.0
74 0.0
75 0.0
76 0.0
77 0.0
78 0.0
79 0.0
80 0.0
81 0.0
82 0.0
83 0.0
84 0.0
85 0.0
86 0.0
87 0.0
88 0.0
89 0.0
90 0.0
91 0.0
92 0.0
93 0.0
94 0.0
95 0.0
96 0.0
97 0.0
98 0.0
99 0.0
100 0.0
106 0.0
107 0.0
108 0.0
109 0.0
110 0.0
111 0.0
112 0.0
113 0.0
114 0.0
115 0.0
116 0.0
117 0.0
118 0.0
119 0.0
120 0.0
121 0.0
122 0.0
123 0.0
124 0.0
125 0.0
126 0.0
127 0.0
128 0.0
129 0.0
130 0.0
131 0.0
132 0.0
133 0.0
134 0.0
135 0.0
136 0.0
137 0.0
138 0.0
139 0.0
140 0.0
141 0.0
142 0.0
143 0.0
144 0.0
145 0.0
146 0.0
147 0.0
148 0.0
149 0.0
150 0.0
151 0.0
152 0.0
153 0.0
154 0.0
155 0.0
156 0.0
157 0.0
158 0.0
159 0.0
160 0.0
161 0.0
162 0.0
163 0.0
164 0.0
165 0.0
166 0.0
167 0.0
168 0.0
169 0.0
170 0.0
171 0.0
172 0.0
173 0.0
174 0.0
175 0.0
176 0.0
177 0.0
178 0.0
179 0.0
180 0.0
181 0.0
182 0.0
183 0.0
184 0.0
185 0.0
186 0.0
187 0.0
188 0.0
189 0.0
190 0.0
191 0.0
192 0.0
193 0.0
194 0.0
195 0.0
196 0.0
197 0.0
198 0.0
199 0.0
200 0.0
201 0.0
202 0.0
203 0.0
204 0.0
205 0.0
1.79769313486232E+308 # default variable upper bound value
100 # number of non-default variable upper bounds
1 1.0
2 1.0
3 1.0
4 1.0
5 1.0
6 1.0
7 1.0
8 1.0
9 1.0
10 1.0
11 1.0
12 1.0
13 1.0
14 1.0
15 1.0
16 1.0
17 1.0
18 1.0
19 1.0
20 1.0
21 1.0
22 1.0
23 1.0
24 1.0
25 1.0
26 1.0
27 1.0
28 1.0
29 1.0
30 1.0
31 1.0
32 1.0
33 1.0
34 1.0
35 1.0
36 1.0
37 1.0
38 1.0
39 1.0
40 1.0
41 1.0
42 1.0
43 1.0
44 1.0
45 1.0
46 1.0
47 1.0
48 1.0
49 1.0
50 1.0
51 1.0
52 1.0
53 1.0
54 1.0
55 1.0
56 1.0
57 1.0
58 1.0
59 1.0
60 1.0
61 1.0
62 1.0
63 1.0
64 1.0
65 1.0
66 1.0
67 1.0
68 1.0
69 1.0
70 1.0
71 1.0
72 1.0
73 1.0
74 1.0
75 1.0
76 1.0
77 1.0
78 1.0
79 1.0
80 1.0
81 1.0
82 1.0
83 1.0
84 1.0
85 1.0
86 1.0
87 1.0
88 1.0
89 1.0
90 1.0
91 1.0
92 1.0
93 1.0
94 1.0
95 1.0
96 1.0
97 1.0
98 1.0
99 1.0
100 1.0
0 # default variable type
100 # number of non-default variable types
1 1
2 1
3 1
4 1
5 1
6 1
7 1
8 1
9 1
10 1
11 1
12 1
13 1
14 1
15 1
16 1
17 1
18 1
19 1
20 1
21 1
22 1
23 1
24 1
25 1
26 1
27 1
28 1
29 1
30 1
31 1
32 1
33 1
34 1
35 1
36 1
37 1
38 1
39 1
40 1
41 1
42 1
43 1
44 1
45 1
46 1
47 1
48 1
49 1
50 1
51 1
52 1
53 1
54 1
55 1
56 1
57 1
58 1
59 1
60 1
61 1
62 1
63 1
64 1
65 1
66 1
67 1
68 1
69 1
70 1
71 1
72 1
73 1
74 1
75 1
76 1
77 1
78 1
79 1
80 1
81 1
82 1
83 1
84 1
85 1
86 1
87 1
88 1
89 1
90 1
91 1
92 1
93 1
94 1
95 1
96 1
97 1
98 1
99 1
100 1
0.0 # default variable primal value in starting point
0 # number of non-default variable primal values in starting point
0.0 # default constraint dual value in starting point
0 # number of non-default constraint dual values in starting point
0.0 # default variable bound dual value in starting point
0 # number of non-default variable bound dual values in starting point
0 # number of non-default variable names
0 # number of non-default constraint names
